/*********************************************
 * OPL 12.6.0.0 Data
 * Author: Administrator
 * Creation Date: 23-11-2017 at 18:22:54
 *********************************************/

 n = 10;
 Arcs = {<1,2,50>,<2,1,90>,<2,3,55>,<3,2,90>,<2,4,55>,<4,2,85>,<5,2,100>,<3,5,60>,<4,5,60>,
 		<5,6,65>,<7,5,100>,<6,7,70>,<5,8,65>,<8,7,70>,<7,9,75>,<9,10,80>,<10,9,75>,<10,8,75>};